
List of user-set options:

                                    Name   Value                used
                           compl_inf_tol = 1                     yes
                         constr_viol_tol = 1                     yes
                            dual_inf_tol = 1000                  yes
                           linear_solver = ma97                  yes
                              ma86_small = 1e-30                  no
                                  ma86_u = 0.0001                 no
                              ma97_order = best                  yes
                              ma97_small = 1e-30                 yes
                            ma97_switch1 = at_start              yes
                            ma97_switch2 = od_hd_reuse           yes
                                  ma97_u = 1e-06                 yes
                               ma97_umax = 0.5                   yes
                                max_iter = 1000                  yes
                    max_refinement_steps = 20                    yes
                    min_refinement_steps = 5                     yes
                                 mu_init = 1e-06                 yes
           mu_superlinear_decrease_power = 1.25                  yes
                   nlp_scaling_min_value = 1e-08                 yes
                        option_file_name = Preset_Case_310_pf.opt  yes
                             output_file = ./tmp/Preset_Case_310_pf.output  yes
                      print_user_options = yes                   yes
        required_infeasibility_reduction = 1                      no
                                     tol = 1e-08                 yes
                   warm_start_bound_frac = 1e-20                 yes
                   warm_start_bound_push = 1e-20                 yes
                   warm_start_init_point = yes                   yes
              warm_start_mult_bound_push = 1e-20                 yes
                warm_start_mult_init_max = 1e+40                 yes
             warm_start_slack_bound_frac = 1e-20                 yes
             warm_start_slack_bound_push = 1e-20                 yes

******************************************************************************
This program contains Ipopt, a library for large-scale nonlinear optimization.
 Ipopt is released as open source code under the Eclipse Public License (EPL).
         For more information visit http://projects.coin-or.org/Ipopt
******************************************************************************

This is Ipopt version 3.12.10, running with linear solver ma97.

Number of nonzeros in equality constraint Jacobian...:   123442
Number of nonzeros in inequality constraint Jacobian.:      213
Number of nonzeros in Lagrangian Hessian.............:    49069

Total number of variables............................:    31591
                     variables with only lower bounds:    12912
                variables with lower and upper bounds:    15130
                     variables with only upper bounds:        0
Total number of equality constraints.................:    31483
Total number of inequality constraints...............:       25
        inequality constraints with only lower bounds:        4
   inequality constraints with lower and upper bounds:        0
        inequality constraints with only upper bounds:       21

iter    objective    inf_pr   inf_du lg(mu)  ||d||  lg(rg) alpha_du alpha_pr  ls
   0 -5.4315778e+00 4.00e-03 1.02e+00  -6.0 0.00e+00    -  0.00e+00 0.00e+00   0
   1 -5.4326783e+00 8.51e+00 3.35e+01  -6.0 3.76e+05    -  8.47e-05 1.20e-03h  1
   2 -5.4326409e+00 8.51e+00 3.35e+01  -6.0 2.80e+03    -  1.14e-04 3.37e-05h  1
   3 -5.4313507e+00 8.51e+00 3.35e+01  -6.0 1.56e+04    -  1.00e-04 4.68e-04h  4
   4 -5.4311578e+00 8.51e+00 9.97e+01  -6.0 4.19e+03    -  1.60e-01 1.80e-04h  6
   5 -5.4310116e+00 8.51e+00 1.16e+02  -6.0 1.19e+04    -  8.14e-04 5.94e-05h  7
   6 -5.4309905e+00 8.51e+00 1.18e+02  -6.0 2.10e+03    -  3.15e-04 1.31e-05h 11
   7 -5.4298632e+00 8.50e+00 1.18e+02  -6.0 4.04e+03    -  1.04e-03 1.04e-03s 21
   8r-5.4298632e+00 8.50e+00 9.99e+02   0.9 0.00e+00    -  0.00e+00 0.00e+00R  1
   9r-5.4361314e+00 8.50e+00 2.22e+03   0.9 2.00e+05    -  1.81e-07 3.70e-08f  1
iter    objective    inf_pr   inf_du lg(mu)  ||d||  lg(rg) alpha_du alpha_pr  ls
  10 -5.4361038e+00 8.50e+00 1.22e+03  -6.0 5.27e+02    -  7.79e-04 2.14e-05h  1
  11 -5.4341320e+00 8.49e+00 6.61e+04  -6.0 3.52e+02    -  2.25e-05 1.18e-03h  1
  12 -5.4326704e+00 8.48e+00 6.61e+04  -6.0 3.57e+02    -  1.02e-03 8.87e-04h  1
  13 -5.4299634e+00 8.47e+00 6.60e+04  -6.0 3.19e+02    -  2.85e-03 1.26e-03h  1
  14 -5.4052951e+00 8.37e+00 6.52e+04  -6.0 3.24e+02    -  1.13e-03 1.18e-02h  1
  15 -5.3690762e+00 8.22e+00 6.41e+04  -6.0 3.24e+02    -  1.18e-03 1.75e-02h  1
  16 -5.3206005e+00 8.03e+00 6.25e+04  -6.0 3.22e+02    -  1.05e-02 2.41e-02h  1
  17 -5.2540409e+00 7.76e+00 6.04e+04  -6.0 3.14e+02    -  5.61e-02 3.34e-02h  1
  18 -5.2146761e+00 7.60e+00 5.92e+04  -6.0 3.05e+02    -  3.12e-02 2.03e-02h  1
  19 -5.0778898e+00 7.07e+00 5.50e+04  -6.0 3.00e+02    -  1.14e-01 7.14e-02h  1
iter    objective    inf_pr   inf_du lg(mu)  ||d||  lg(rg) alpha_du alpha_pr  ls
  20 -5.0622375e+00 7.04e+00 5.47e+04  -6.0 2.06e+02  -2.0 2.79e-04 4.43e-03h  1
  21 -5.0561799e+00 7.02e+00 5.46e+04  -6.0 2.10e+02  -2.5 4.01e-02 1.89e-03h  1
  22 -5.0486842e+00 7.01e+00 5.45e+04  -6.0 8.67e+02  -3.0 1.49e-03 1.80e-03h  1
  23 -4.4252524e+00 4.89e+00 3.73e+04  -6.0 2.68e+02    -  7.37e-03 3.16e-01h  1
  24 -4.4233400e+00 4.89e+00 3.73e+04  -6.0 4.56e+02  -3.4 2.15e-02 7.91e-04h  1
  25r-4.4233400e+00 4.89e+00 1.00e+03   0.7 0.00e+00    -  0.00e+00 2.24e-07R  2
  26r-4.2119449e+00 4.89e+00 1.32e+03   0.7 4.15e+06    -  1.50e-07 2.12e-07f  1
  27r-4.2054276e+00 4.88e+00 3.55e+03   0.7 9.07e+03    -  2.46e-06 6.77e-07f  1
  28r-4.1791817e+00 4.86e+00 3.55e+03   0.7 8.68e+03    -  5.81e-06 5.53e-06f  1
  29r-4.1829210e+00 4.77e+00 3.55e+03   0.7 5.16e+03    -  2.05e-05 1.76e-05f  1
iter    objective    inf_pr   inf_du lg(mu)  ||d||  lg(rg) alpha_du alpha_pr  ls
  30r-4.2248466e+00 4.64e+00 3.55e+03   0.7 4.63e+03    -  3.65e-05 2.79e-05f  1
  31r-4.5835930e+00 3.52e+00 3.55e+03   0.7 4.35e+03    -  1.44e-04 2.59e-04f  1
  32 -4.5807951e+00 3.51e+00 1.01e+02  -6.0 2.21e+02    -  3.17e-04 3.01e-03h  1
  33 -4.5806605e+00 3.51e+00 2.62e+02  -6.0 2.25e+02    -  2.73e-02 1.15e-04h  1
  34 -4.5781841e+00 3.50e+00 1.33e+03  -6.0 2.07e+02    -  4.38e-02 1.44e-03h  1
  35 -4.5327643e+00 3.41e+00 7.79e+02  -6.0 2.07e+02    -  3.89e-03 2.60e-02h  1
  36 -4.4551135e+00 3.25e+00 1.21e+03  -6.0 2.07e+02    -  6.54e-02 4.73e-02h  1
  37 -4.4243348e+00 3.17e+00 3.25e+03  -6.0 2.07e+02    -  9.88e-02 2.37e-02h  1
  38 -4.3361041e+00 2.84e+00 2.45e+03  -6.0 2.22e+02    -  9.08e-02 1.06e-01h  1
  39 -4.2461179e+00 2.47e+00 1.17e+03  -6.0 2.17e+02    -  5.73e-02 1.34e-01h  1
iter    objective    inf_pr   inf_du lg(mu)  ||d||  lg(rg) alpha_du alpha_pr  ls
  40 -4.2265542e+00 2.35e+00 9.59e+02  -6.0 2.11e+02    -  4.40e-02 4.70e-02h  1
  41 -4.2146960e+00 2.24e+00 3.41e+03  -6.0 2.04e+02    -  1.39e-01 4.99e-02h  1
  42 -4.2114822e+00 2.21e+00 1.16e+04  -6.0 1.94e+02    -  2.18e-01 1.07e-02h  1
  43 -4.1865166e+00 2.04e+00 1.47e+04  -6.0 1.99e+02    -  2.12e-01 7.96e-02h  1
  44 -4.1500918e+00 1.72e+00 1.27e+04  -6.0 1.93e+02    -  1.73e-01 1.59e-01h  1
  45 -4.1107366e+00 1.33e+00 4.53e+03  -6.0 1.70e+02    -  1.09e-02 2.28e-01h  1
  46 -4.0983673e+00 1.16e+00 3.20e+03  -6.0 1.28e+02    -  4.20e-02 1.25e-01h  1
  47 -4.0780084e+00 7.59e-01 1.01e+04  -6.0 1.03e+02    -  3.17e-03 3.47e-01h  1
  48 -4.0503702e+00 5.01e-01 1.56e+04  -6.0 4.85e+01    -  8.23e-02 3.40e-01h  1
  49 -4.0432515e+00 3.87e-01 1.67e+04  -6.0 1.80e+01    -  9.09e-02 3.31e-01h  1
iter    objective    inf_pr   inf_du lg(mu)  ||d||  lg(rg) alpha_du alpha_pr  ls
  50 -4.0891730e+00 3.49e-01 1.28e+04  -6.0 3.66e+01    -  8.27e-02 6.54e-01h  1
  51 -4.2228806e+00 2.38e-01 2.19e+03  -6.0 4.87e+01    -  5.16e-02 3.10e-01h  1
  52 -4.5932496e+00 2.30e-01 1.98e+04  -6.0 4.90e+01    -  3.49e-01 6.30e-01f  1
  53 -4.6348977e+00 2.18e-01 7.52e+03  -6.0 5.56e+01    -  2.30e-01 6.83e-02h  1
  54 -4.7005251e+00 2.11e-01 1.20e+04  -6.0 2.45e+01    -  6.14e-01 1.08e-01h  1
  55 -5.0367234e+00 5.01e-01 6.14e+03  -6.0 7.87e+01    -  4.80e-01 2.50e-01h  1
  56 -5.2060895e+00 5.61e-01 5.66e+03  -6.0 9.00e+01    -  1.44e-01 1.11e-01h  1
  57 -5.3306660e+00 6.66e-01 5.07e+03  -6.0 5.52e+01    -  1.64e-01 1.25e-01h  1
  58 -5.4164605e+00 6.19e-01 4.24e+03  -6.0 2.05e+01  -3.9 1.93e-01 1.95e-01h  1
  59 -5.4293685e+00 6.11e-01 4.18e+03  -6.0 1.33e+02    -  2.81e-02 1.48e-02h  1
iter    objective    inf_pr   inf_du lg(mu)  ||d||  lg(rg) alpha_du alpha_pr  ls
  60 -5.5392093e+00 6.51e-01 3.68e+03  -6.0 1.07e+02    -  2.56e-02 1.66e-01h  1
  61 -5.5479991e+00 6.29e-01 3.54e+03  -6.0 1.18e+02    -  3.20e-01 3.59e-02h  1
  62 -5.5502345e+00 6.24e-01 6.47e+03  -6.0 1.50e+02    -  3.60e-01 8.13e-03h  1
  63 -5.5677747e+00 5.92e-01 7.46e+03  -6.0 1.99e+02    -  2.75e-01 6.17e-02h  1
  64 -5.6503367e+00 6.14e-01 5.86e+03  -6.0 2.33e+02    -  2.89e-01 1.59e-01h  1
  65 -5.6802040e+00 5.70e-01 2.55e+03  -6.0 2.26e+02    -  5.48e-01 1.47e-01h  1
  66 -5.7049236e+00 5.55e-01 2.32e+03  -6.0 3.29e+02    -  1.07e-01 9.72e-02h  1
  67 -5.8412073e+00 1.81e+00 1.69e+03  -6.0 3.28e+02    -  2.40e-01 5.95e-01h  1
  68 -5.8412480e+00 1.81e+00 1.69e+03  -6.0 2.08e+03    -  2.30e-01 8.81e-05h  1
  69 -5.8426025e+00 1.78e+00 1.67e+03  -6.0 2.57e+02    -  1.46e-01 1.28e-02h  1
iter    objective    inf_pr   inf_du lg(mu)  ||d||  lg(rg) alpha_du alpha_pr  ls
  70 -5.8760428e+00 2.62e+00 1.37e+03  -6.0 2.81e+02    -  3.16e-01 2.47e-01f  1
  71 -5.8792169e+00 2.49e+00 1.94e+03  -6.0 2.51e+02    -  7.60e-01 4.90e-02h  1
  72 -5.9465593e+00 4.68e+00 7.75e+02  -6.0 9.52e+02    -  8.08e-01 6.17e-01h  1
  73 -5.9790587e+00 1.09e+01 6.99e+05  -6.0 2.84e+03    -  5.28e-01 2.58e-01h  1
  74 -5.9726243e+00 8.06e+00 4.89e+05  -6.0 5.88e+01  -4.4 1.93e-02 2.62e-01h  1
  75 -6.0142633e+00 2.78e+01 1.24e+05  -6.0 1.99e+03    -  1.87e-03 6.68e-01f  1
  76 -6.0211433e+00 2.45e+01 5.92e+04  -6.0 1.66e+03    -  2.78e-02 4.97e-01h  1
  77 -6.0237622e+00 2.14e+01 6.10e+05  -6.0 4.86e+02    -  4.81e-01 1.29e-01h  1
  78 -6.0273736e+00 1.65e+01 4.66e+05  -6.0 1.04e+03    -  2.18e-01 3.05e-01h  1
  79 -6.0264929e+00 4.34e-02 2.69e+06  -6.0 3.18e+01  -4.9 3.09e-02 1.00e+00h  1
iter    objective    inf_pr   inf_du lg(mu)  ||d||  lg(rg) alpha_du alpha_pr  ls
  80 -6.0255221e+00 1.76e-03 1.46e+05  -6.0 6.61e+00  -5.3 7.88e-01 1.00e+00h  1
  81 -6.0287855e+00 4.40e-02 2.19e+04  -6.0 3.28e+01  -5.8 9.82e-01 1.00e+00h  1
  82 -6.0354754e+00 1.44e-01 2.13e+04  -6.0 8.59e+03    -  1.66e-02 5.76e-03h  1
  83 -6.0355914e+00 1.43e-01 5.56e+04  -6.0 2.37e+03    -  2.04e-01 5.89e-03h  1
  84 -6.0376261e+00 6.98e-01 5.68e+04  -6.0 1.28e+03    -  1.19e-01 8.47e-02h  1
  85 -6.0376493e+00 6.81e-01 5.78e+05  -6.0 4.08e+01  -3.6 2.18e-06 2.39e-02h  1
  86 -6.0388145e+00 5.46e-01 5.57e+05  -6.0 6.24e+02    -  3.62e-02 6.39e-02h  1
  87 -6.0388145e+00 5.46e-01 5.57e+05  -6.0 3.21e+01  -1.4 2.17e-08 1.71e-08h  2
  88 -6.0388145e+00 5.46e-01 5.52e+05  -6.0 6.36e+00  -0.0 2.44e-03 1.61e-07h  2
  89 -6.0388043e+00 5.43e-01 5.52e+05  -6.0 3.25e+00  -0.5 3.73e-03 5.03e-03h  1
iter    objective    inf_pr   inf_du lg(mu)  ||d||  lg(rg) alpha_du alpha_pr  ls
  90 -6.0381455e+00 3.89e-01 7.66e+05  -6.0 3.26e+00  -1.0 1.64e-02 2.84e-01h  1
  91 -6.0365870e+00 1.40e-01 3.17e+05  -6.0 2.26e+00  -1.5 5.80e-02 6.40e-01h  1
  92 -6.0369432e+00 8.88e-02 1.95e+05  -6.0 8.82e-01  -1.9 6.47e-01 3.65e-01h  1
  93 -6.0371687e+00 8.42e-02 1.83e+05  -6.0 7.15e-01  -2.4 7.79e-01 5.13e-02h  1
  94 -6.0373887e+00 8.06e-02 1.74e+05  -6.0 7.60e-01  -2.9 1.00e+00 4.35e-02h  1
  95 -6.0376379e+00 7.49e-02 1.62e+05  -6.0 1.17e+00  -3.4 1.00e+00 7.04e-02h  1
  96 -6.0377502e+00 6.46e-02 1.40e+05  -6.0 1.16e+00  -3.8 1.00e+00 1.37e-01h  1
  97 -6.0377750e+00 5.39e-02 1.17e+05  -6.0 8.80e-01  -4.3 1.00e+00 1.66e-01h  1
  98 -6.0379723e+00 9.32e-03 2.02e+04  -6.0 1.46e+00  -4.8 1.00e+00 8.27e-01h  1
  99 -6.0380714e+00 6.53e-03 1.41e+04  -6.0 2.52e+00  -5.3 3.59e-01 2.99e-01f  1
iter    objective    inf_pr   inf_du lg(mu)  ||d||  lg(rg) alpha_du alpha_pr  ls
 100 -6.0383334e+00 3.69e-03 7.99e+03  -6.0 5.23e+00  -5.7 1.00e+00 4.35e-01f  1
 101 -6.0399931e+00 8.53e-03 8.38e+00  -6.0 1.42e+01  -6.2 1.00e+00 1.00e+00h  1
 102 -6.0488937e+00 1.77e-01 6.49e+01  -6.0 2.29e+02  -6.7 3.41e-01 2.86e-01h  1
 103 -6.0489103e+00 1.77e-01 6.48e+01  -6.0 1.64e+03    -  2.38e-01 1.02e-03h  1
 104 -6.0522959e+00 2.35e+00 7.90e+01  -6.0 1.66e+03    -  5.74e-01 2.13e-01f  1
 105 -6.0544165e+00 2.27e+00 5.07e+02  -6.0 7.90e+02    -  8.50e-01 1.62e-01h  1
 106 -6.0546040e+00 2.06e+00 5.49e+02  -6.0 5.32e+01  -5.4 3.14e-05 9.26e-02h  1
 107 -6.0547759e+00 5.49e+01 7.16e+02  -6.0 5.08e+04    -  1.60e-07 3.47e-02f  1
 108 -6.0554440e+00 5.44e+01 1.47e+04  -6.0 6.32e+01  -3.1 2.58e-03 7.83e-03h  1
 109 -6.0545203e+00 4.86e+01 7.86e+04  -6.0 8.43e+00  -2.7 7.85e-03 1.07e-01h  3
iter    objective    inf_pr   inf_du lg(mu)  ||d||  lg(rg) alpha_du alpha_pr  ls
 110 -6.0547349e+00 4.74e+01 7.66e+04  -6.0 2.52e+01  -3.2 3.25e-02 2.48e-02h  1
 111 -6.0545041e+00 4.64e+01 7.49e+04  -6.0 7.34e+00  -3.7 1.89e-01 2.17e-02h  4
 112 -6.0520356e+00 4.12e-02 3.85e+02  -6.0 7.18e+00  -4.1 2.93e-01 1.00e+00h  1
 113 -6.0564220e+00 6.74e-01 3.50e+02  -6.0 1.42e+03    -  6.81e-01 1.27e-01h  1
 114 -6.0565490e+00 5.91e-01 3.09e+02  -6.0 1.90e+00  -4.6 1.16e-01 1.23e-01h  1
 115 -6.0566177e+00 5.62e-01 2.94e+02  -6.0 4.96e+00  -5.1 2.97e-02 5.02e-02f  1
 116 -6.0566304e+00 5.52e-01 2.89e+02  -6.0 3.88e-01  -3.8 1.00e+00 1.72e-02f  1
 117 -6.0569177e+00 3.52e-01 2.00e+02  -6.0 8.76e-01  -4.2 1.00e+00 3.63e-01h  1
 118 -6.0576379e+00 2.23e-04 4.29e+01  -6.0 2.25e+00  -4.7 1.00e+00 1.00e+00h  1
 119 -6.0584142e+00 1.70e-03 4.72e-01  -6.0 6.05e+00  -5.2 1.00e+00 1.00e+00h  1
iter    objective    inf_pr   inf_du lg(mu)  ||d||  lg(rg) alpha_du alpha_pr  ls
 120 -6.0601933e+00 9.69e-03 2.03e+00  -6.0 1.48e+01  -5.7 1.00e+00 1.00e+00h  1
 121 -6.0633137e+00 4.16e-02 6.78e+00  -6.0 3.10e+01  -6.2 1.00e+00 1.00e+00h  1
 122 -6.0662278e+00 7.16e-02 6.59e+00  -6.0 5.03e+01  -6.6 1.00e+00 7.94e-01h  1
 123 -6.0740441e+00 6.09e-01 6.03e+02  -6.0 1.77e+02  -7.1 4.70e-01 1.00e+00h  1
 124 -6.0768353e+00 3.06e-01 1.56e+02  -6.0 7.04e+01  -6.7 1.00e+00 5.43e-01h  1
 125 -6.0912243e+00 1.80e+00 9.42e+02  -6.0 2.93e+02  -7.2 7.02e-01 1.00e+00h  1
 126 -6.1024252e+00 1.46e+00 1.57e+02  -6.0 2.20e+03  -7.6 1.25e-01 1.40e-01h  1
 127 -6.1125661e+00 1.25e+00 1.62e+02  -6.0 2.54e+02  -7.2 8.60e-01 7.35e-01h  1
 128 -6.1218532e+00 1.76e+00 3.01e+02  -6.0 3.01e+03    -  1.91e-01 1.99e-01h  1
 129 -6.1254387e+00 1.82e+00 6.92e+03  -6.0 1.66e+03    -  1.80e-01 8.62e-02h  1
iter    objective    inf_pr   inf_du lg(mu)  ||d||  lg(rg) alpha_du alpha_pr  ls
 130 -6.1412159e+00 9.84e+00 2.36e+04  -6.0 1.50e+03    -  1.00e+00 6.23e-01h  1
 131 -6.1455935e+00 4.89e+00 1.33e+04  -6.0 2.09e+02    -  5.23e-01 5.05e-01h  1
 132 -6.1552033e+00 1.22e+00 4.08e+04  -6.0 2.10e+02    -  1.00e+00 8.27e-01h  1
 133 -6.1621259e+00 8.60e-01 1.55e+05  -6.0 2.42e+02    -  6.30e-01 4.28e-01h  1
 134 -6.1700177e+00 9.54e-01 8.14e+05  -6.0 3.23e+02    -  1.00e+00 3.83e-01h  1
 135r-6.1700177e+00 9.54e-01 1.00e+03  -0.0 0.00e+00    -  0.00e+00 1.88e-07R  2
 136r-6.1855748e+00 9.52e-01 1.00e+03  -0.0 9.21e+03    -  6.44e-06 1.81e-06f  1
 137 -6.1851259e+00 9.28e-01 3.36e+05  -6.0 8.88e+00    -  2.34e-01 2.60e-02h  1
 138 -6.1778380e+00 6.22e-01 4.65e+06  -6.0 8.26e+00    -  2.60e-02 3.30e-01h  1
 139 -6.1745030e+00 3.74e-01 2.80e+06  -6.0 6.47e+00    -  1.26e-01 3.99e-01h  1
iter    objective    inf_pr   inf_du lg(mu)  ||d||  lg(rg) alpha_du alpha_pr  ls
 140 -6.1746219e+00 3.64e-01 2.72e+06  -6.0 4.15e+00    -  8.24e-01 2.75e-02h  1
 141 -6.1678270e+00 5.48e-04 1.59e+01  -6.0 4.09e+00    -  9.49e-01 1.00e+00h  1
 142 -6.1680186e+00 5.85e-04 4.51e+01  -6.0 1.99e+01    -  9.09e-01 1.23e-01h  1
 143 -6.1684085e+00 2.32e-04 1.18e+00  -6.0 2.28e+00  -5.0 9.90e-01 1.00e+00f  1
 144 -6.1712836e+00 1.29e-01 1.55e+01  -6.0 2.62e+02    -  6.92e-01 2.36e-01h  2
 145 -6.1738475e+00 2.51e-01 1.07e+01  -6.0 1.54e+02    -  9.86e-01 5.00e-01h  2
 146 -6.1741870e+00 1.78e-01 8.58e-01  -6.0 7.51e+01    -  8.70e-01 1.00e+00h  1
 147 -6.1733280e+00 1.46e-03 2.07e-02  -6.0 6.00e+00    -  1.00e+00 1.00e+00h  1
 148 -6.1732684e+00 1.53e-04 2.98e-03  -6.0 1.93e+00    -  1.00e+00 1.00e+00h  1
 149 -6.1732652e+00 4.07e-07 9.85e-06  -6.0 9.94e-02    -  1.00e+00 1.00e+00h  1
iter    objective    inf_pr   inf_du lg(mu)  ||d||  lg(rg) alpha_du alpha_pr  ls
 150 -6.1733414e+00 1.30e-01 4.90e+01  -7.5 1.12e+02    -  9.51e-01 7.81e-01h  1
 151 -6.1733426e+00 2.67e-02 1.07e+01  -7.5 2.49e+01    -  1.00e+00 8.55e-01h  1
 152 -6.1733417e+00 1.93e-04 3.85e-03  -7.5 3.33e+00    -  1.00e+00 1.00e+00h  1
 153 -6.1733417e+00 7.53e-10 9.60e-10  -7.5 6.85e-03    -  1.00e+00 1.00e+00h  1
 154 -6.1733432e+00 1.55e-04 7.14e-01  -9.0 3.55e+00    -  9.24e-01 8.47e-01h  1
 155 -6.1733434e+00 5.11e-06 3.96e-01  -9.0 5.45e-01    -  9.01e-01 1.00e+00f  1
 156 -6.1733435e+00 2.85e-10 4.02e-09  -9.0 1.84e-04    -  1.00e+00 1.00e+00h  1

Number of Iterations....: 156

                                   (scaled)                 (unscaled)
Objective...............:  -4.8229245719396436e+00   -6.1733434520827437e+00
Dual infeasibility......:   4.0195169492093672e-09    5.1449816949879901e-09
Constraint violation....:   2.8474785300925537e-10    2.8474785300925537e-10
Complementarity.........:   1.2569206942309939e-09    1.6088584886156722e-09
Overall NLP error.......:   4.0195169492093672e-09    5.1449816949879901e-09


Number of objective function evaluations             = 220
Number of objective gradient evaluations             = 152
Number of equality constraint evaluations            = 220
Number of inequality constraint evaluations          = 220
Number of equality constraint Jacobian evaluations   = 160
Number of inequality constraint Jacobian evaluations = 160
Number of Lagrangian Hessian evaluations             = 156
Total CPU secs in IPOPT (w/o function evaluations)   =    395.942
Total CPU secs in NLP function evaluations           =      6.226

EXIT: Optimal Solution Found.
